unsat
(:binary-propagations  7
 :conflicts            1
 :final-checks         1
 :max-generation       1
 :max-memory           23.43
 :memory               20.90
 :mk-bool-var          565
 :mk-clause            197
 :mk-clause-binary     699
 :num-allocs           6801588
 :num-checks           1
 :propagations         7
 :quant-instantiations 98
 :restarts             1
 :rlimit-count         74950
 :time                 0.02)
